30
181
5
29
73
3
20
45
0 8
0 9
0 10
0 12
0 16
0 17
0 20
0 23
0 26
0 27
0 28
1 4
1 5
1 8
1 13
1 17
1 18
1 19
1 24
1 25
1 28
2 8
2 11
2 12
2 14
2 15
2 17
2 23
2 25
2 28
2 29
3 13
3 16
3 17
3 18
3 23
3 24
3 25
3 29
4 5
4 7
4 12
4 13
4 15
4 16
4 17
4 18
4 21
4 26
4 27
4 28
5 8
5 10
5 13
5 15
5 16
5 17
5 18
5 25
5 27
6 7
6 9
6 10
6 15
6 16
6 21
6 26
7 8
7 12
7 13
7 14
7 15
7 16
7 18
7 19
7 20
7 21
7 22
7 26
7 27
7 28
8 9
8 16
8 20
8 21
8 25
8 26
9 10
9 11
9 14
9 15
9 16
9 17
9 19
9 22
9 23
9 26
9 28
9 29
10 15
10 19
10 20
10 21
10 23
10 26
10 27
10 28
10 29
11 14
11 16
11 18
11 21
11 27
11 28
12 13
12 18
12 19
12 22
12 25
12 26
13 17
13 19
13 20
13 25
13 29
14 16
14 17
14 18
14 22
14 27
14 28
15 17
15 21
15 22
15 25
15 29
16 18
16 23
16 24
16 26
16 27
17 18
17 20
17 21
17 22
17 24
17 25
17 26
17 28
18 20
18 21
18 22
18 23
18 26
18 29
19 20
19 21
19 22
19 26
19 27
20 21
20 23
20 25
20 26
20 29
21 23
21 24
21 27
22 23
22 24
22 26
22 29
23 27
23 28
23 29
24 25
24 27
24 28
25 26
25 27
27 29
13 27 25 23 8 4 15
6 10 5 29 9 21 3
7 11 28 14 22 19 12
17 2 18 0 16 24 1
26 20
